
Gurobi 7.0.1 (linux64) logging started Sun Jul  2 21:28:54 2017

Optimize a model with 21691 rows, 14464 columns and 73015 nonzeros
Variable types: 0 continuous, 14464 integer (14464 binary)
Coefficient statistics:
  Matrix range     [1e+00, 9e+00]
  Objective range  [1e+00, 1e+00]
  Bounds range     [1e+00, 1e+00]
  RHS range        [1e+00, 5e+01]
Presolve removed 21350 rows and 14165 columns
Presolve time: 0.08s
Presolved: 341 rows, 299 columns, 2588 nonzeros
Variable types: 0 continuous, 299 integer (299 binary)

Root relaxation: objective 9.000000e+00, 55 iterations, 0.00 seconds

    Nodes    |    Current Node    |     Objective Bounds      |     Work
 Expl Unexpl |  Obj  Depth IntInf | Incumbent    BestBd   Gap | It/Node Time

     0     0    9.00000    0    2          -    9.00000      -     -    0s
     0     0    9.00000    0    3          -    9.00000      -     -    0s
     0     0    9.00000    0    2          -    9.00000      -     -    0s
     0     0    9.00000    0    3          -    9.00000      -     -    0s
     0     0    9.00000    0    2          -    9.00000      -     -    0s
     0     0    9.00000    0    2          -    9.00000      -     -    0s
     0     2    9.00000    0    2          -    9.00000      -     -    0s
*    8     9               3       6.0000000    9.00000  50.0%   7.0    0s
*   15     5               4       8.0000000    8.50000  6.25%   6.0    0s

Cutting planes:
  MIR: 2
  Lazy constraints: 16

Explored 24 nodes (263 simplex iterations) in 0.35 seconds
Thread count was 12 (of 12 available processors)

Solution count 2: 8 6 
Pool objective bound 8

Optimal solution found (tolerance 1.00e-04)
Best objective 8.000000000000e+00, best bound 8.000000000000e+00, gap 0.0000%
Optimize a model with 21691 rows, 14464 columns and 73015 nonzeros
Variable types: 0 continuous, 14464 integer (14464 binary)
Coefficient statistics:
  Matrix range     [1e+00, 9e+00]
  Objective range  [4e-01, 6e-01]
  Bounds range     [1e+00, 1e+00]
  RHS range        [1e+00, 5e+01]
Presolve removed 21350 rows and 14165 columns
Presolve time: 0.06s
Presolved: 341 rows, 299 columns, 2588 nonzeros

Loaded MIP start with objective -5.55112e-16

Variable types: 0 continuous, 299 integer (299 binary)

Root relaxation: objective 1.000000e+00, 52 iterations, 0.00 seconds

    Nodes    |    Current Node    |     Objective Bounds      |     Work
 Expl Unexpl |  Obj  Depth IntInf | Incumbent    BestBd   Gap | It/Node Time

     0     0    1.00000    0    2   -0.00000    1.00000      -     -    0s
     0     0    1.00000    0    2   -0.00000    1.00000      -     -    0s
     0     0    1.00000    0    2   -0.00000    1.00000      -     -    0s
     0     0    1.00000    0    5   -0.00000    1.00000      -     -    0s
     0     0    1.00000    0    2   -0.00000    1.00000      -     -    0s
     0     0    1.00000    0    6   -0.00000    1.00000      -     -    0s
     0     0    1.00000    0    4   -0.00000    1.00000      -     -    0s
     0     0    1.00000    0    2   -0.00000    1.00000      -     -    0s

Cutting planes:
  Zero half: 2

Explored 0 nodes (173 simplex iterations) in 0.24 seconds
Thread count was 12 (of 12 available processors)

Solution count 1: -5.55112e-16 
Pool objective bound -5.55112e-16

Optimal solution found (tolerance 1.00e-04)
Best objective -5.551115123126e-16, best bound -5.551115123126e-16, gap -
